
  17    0


   0   9 2 3 4 6 7 13 14 15 16 
   6   2 12 5 
   3   2 11 9 
   9   2 10 8 
   4   1 8 
  10   1 9 
   3   1 8 
   7   1 17
   8   1 17
   9   1 17
   7   1 17
   5   1 17
   1   1 17
   4   1 17
   5   1 17
  10   1 17
   0   0 
